110111101100011010011001011011011010101100000011111100010001111101001011110001010001011100101000101110110011000000011001110101000010100111111101111000001110101110100111100011000101101100110001001011100100011000110111111011101011111101000001111010111010101011100111000011100111011101000011100000001110111011111101101101110110110111100001001110110000000110000011000000100101111101101010011001101011101000010101100010000011011101110000010001111100100111100111100110110000111101010101110101000101110111101110111011111001001111101000111100110111010011010011001110101111011100011101111010000100100000010101110010110110000011111100101011111010010110111001011000000110101011111010100110001110011110100001110101001010000011110100100001111010011001101001101100111010010001000100001101010100101100010001110000010101110101110001101001001111101001011111101000110111010111110101101101101101000001101110100101111001101111000000110011010010100001000110000010001110100110011001